; benchmark generated from python API
(set-info :status unknown)
(declare-fun x_epoch () Int)
(declare-fun y_epoch () Int)
(declare-fun x_plus_epoch () Int)
(declare-fun x_plus_month () Int)
(declare-fun x_plus_year () Int)
(declare-fun x_plus_day () Int)
(assert
 (>= x_epoch (- 36584)))
(assert
 (<= x_epoch 36829))
(assert
 (>= y_epoch (- 36584)))
(assert
 (<= y_epoch 36829))
(assert
 (= x_epoch 8371))
(assert
 (>= x_plus_epoch (- 36584)))
(assert
 (<= x_plus_epoch 36829))
(assert
 (let (($x2617 (= x_plus_month 11)))
 (let (($x1150 (= x_plus_month 9)))
 (let (($x2790 (= x_plus_month 6)))
 (let (($x434 (= x_plus_month 4)))
 (let ((?x1387 (ite (or $x434 $x2790 $x1150 $x2617) 30 31)))
 (let (($x722 (= (mod x_plus_year 400) 0)))
 (let (($x868 (= (mod x_plus_year 4) 0)))
 (let (($x669 (or (and $x868 (and (distinct (mod x_plus_year 100) 0) true)) $x722)))
 (let (($x4062 (= x_plus_month 2)))
 (let (($x3861 (>= x_plus_day 1)))
 (let (($x3573 (<= x_plus_month 12)))
 (let (($x4085 (>= x_plus_month 1)))
 (let (($x4083 (<= x_plus_year 2100)))
 (let (($x4079 (>= x_plus_year 1900)))
 (and $x4079 $x4083 $x4085 $x3573 $x3861 (<= x_plus_day (ite $x4062 (ite $x669 29 28) ?x1387))))))))))))))))))
(assert
 (let (($x722 (= (mod x_plus_year 400) 0)))
 (let (($x868 (= (mod x_plus_year 4) 0)))
 (let (($x669 (or (and $x868 (and (distinct (mod x_plus_year 100) 0) true)) $x722)))
 (let ((?x215 (ite (= 2 x_plus_month) (ite $x669 31 31) (ite (= 1 x_plus_month) (ite $x669 0 0) 0))))
 (let ((?x811 (ite (= 4 x_plus_month) (ite $x669 91 90) (ite (= 3 x_plus_month) (ite $x669 60 59) ?x215))))
 (let ((?x685 (ite (= 6 x_plus_month) (ite $x669 152 151) (ite (= 5 x_plus_month) (ite $x669 121 120) ?x811))))
 (let ((?x853 (ite (= 8 x_plus_month) (ite $x669 213 212) (ite (= 7 x_plus_month) (ite $x669 182 181) ?x685))))
 (let ((?x1256 (ite (= 10 x_plus_month) (ite $x669 274 273) (ite (= 9 x_plus_month) (ite $x669 244 243) ?x853))))
 (let ((?x667 (ite (= 12 x_plus_month) (ite $x669 335 334) (ite (= 11 x_plus_month) (ite $x669 305 304) ?x1256))))
 (let ((?x207 (+ (* 365 (- x_plus_year 1)) (div (- x_plus_year 1) 4))))
 (let ((?x204 (+ (- ?x207 (div (- x_plus_year 1) 100)) (div (- x_plus_year 1) 400))))
 (= x_plus_epoch (- (+ (+ ?x204 ?x667) (- x_plus_day 1)) 730179))))))))))))))
(assert
 (let ((?x1885 (+ x_epoch 730179)))
 (let ((?x955 (mod ?x1885 146097)))
 (let ((?x3291 (div ?x955 36524)))
 (let ((?x2830 (ite (<= 4 ?x3291) 3 ?x3291)))
 (let ((?x785 (- ?x955 (* ?x2830 36524))))
 (let ((?x456 (mod ?x785 1461)))
 (let ((?x2088 (div ?x456 365)))
 (let ((?x374 (ite (<= 4 ?x2088) 3 ?x2088)))
 (let ((?x1234 (+ (+ (* (div ?x1885 146097) 400) (* ?x2830 100)) (* (div ?x785 1461) 4))))
 (let ((?x711 (+ (+ ?x1234 ?x374) 1)))
 (let (($x976 (or (and (= (mod ?x711 4) 0) (and (distinct (mod ?x711 100) 0) true)) (= (mod ?x711 400) 0))))
 (let ((?x678 (- ?x456 (* ?x374 365))))
 (let ((?x2492 (ite $x976 31 31)))
 (let (($x2969 (>= ?x678 ?x2492)))
 (let ((?x2227 (ite $x2969 (+ (- ?x678 ?x2492) 1) (+ (- ?x678 (ite $x976 0 0)) 1))))
 (let ((?x810 (ite $x976 60 59)))
 (let (($x837 (>= ?x678 ?x810)))
 (let ((?x401 (ite $x976 91 90)))
 (let (($x1380 (>= ?x678 ?x401)))
 (let ((?x2687 (ite $x1380 (+ (- ?x678 ?x401) 1) (ite $x837 (+ (- ?x678 ?x810) 1) ?x2227))))
 (let ((?x528 (ite $x976 121 120)))
 (let (($x661 (>= ?x678 ?x528)))
 (let ((?x3710 (ite $x976 152 151)))
 (let (($x1145 (>= ?x678 ?x3710)))
 (let ((?x2059 (ite $x1145 (+ (- ?x678 ?x3710) 1) (ite $x661 (+ (- ?x678 ?x528) 1) ?x2687))))
 (let ((?x3712 (ite $x976 182 181)))
 (let (($x234 (>= ?x678 ?x3712)))
 (let ((?x2245 (ite $x976 213 212)))
 (let (($x381 (>= ?x678 ?x2245)))
 (let ((?x708 (ite $x381 (+ (- ?x678 ?x2245) 1) (ite $x234 (+ (- ?x678 ?x3712) 1) ?x2059))))
 (let ((?x677 (ite $x976 244 243)))
 (let (($x1420 (>= ?x678 ?x677)))
 (let ((?x2685 (ite $x976 274 273)))
 (let (($x1708 (>= ?x678 ?x2685)))
 (let ((?x1561 (ite $x1708 (+ (- ?x678 ?x2685) 1) (ite $x1420 (+ (- ?x678 ?x677) 1) ?x708))))
 (let ((?x792 (ite $x976 305 304)))
 (let (($x786 (>= ?x678 ?x792)))
 (let ((?x855 (ite $x976 335 334)))
 (let (($x889 (>= ?x678 ?x855)))
 (let ((?x3437 (ite $x889 (+ (- ?x678 ?x855) 1) (ite $x786 (+ (- ?x678 ?x792) 1) ?x1561))))
 (let ((?x3490 (* 0 12)))
 (let ((?x2807 (+ ?x3490 3)))
 (let ((?x2349 (ite $x661 5 (ite $x1380 4 (ite $x837 3 (ite $x2969 2 1))))))
 (let ((?x896 (ite $x1420 9 (ite $x381 8 (ite $x234 7 (ite $x1145 6 ?x2349))))))
 (let ((?x288 (ite $x889 12 (ite $x786 11 (ite $x1708 10 ?x896)))))
 (let ((?x482 (+ ?x288 ?x2807)))
 (let ((?x3157 (- ?x482 1)))
 (let ((?x1211 (+ (mod ?x3157 12) 1)))
 (let ((?x2691 (ite (or (= ?x1211 4) (= ?x1211 6) (= ?x1211 9) (= ?x1211 11)) 30 31)))
 (let (($x749 (and (= (mod (+ ?x711 (+ 0 (div ?x3157 12))) 4) 0) (and (distinct (mod (+ ?x711 (+ 0 (div ?x3157 12))) 100) 0) true))))
 (let (($x2945 (or $x749 (= (mod (+ ?x711 (+ 0 (div ?x3157 12))) 400) 0))))
 (let ((?x323 (ite (= ?x1211 2) (ite $x2945 29 28) ?x2691)))
 (let (($x2912 (> 1 ?x3437)))
 (let ((?x1619 (ite $x2912 1 (ite (> ?x3437 ?x323) ?x323 ?x3437))))
 (let ((?x2155 (ite (> 1 ?x1619) 1 (ite (> ?x1619 ?x323) ?x323 ?x1619))))
 (let ((?x2963 (ite (= 2 ?x1211) (ite $x2945 31 31) (ite (= 1 ?x1211) (ite $x2945 0 0) 0))))
 (let ((?x3276 (ite (= 4 ?x1211) (ite $x2945 91 90) (ite (= 3 ?x1211) (ite $x2945 60 59) ?x2963))))
 (let ((?x1606 (ite (= 6 ?x1211) (ite $x2945 152 151) (ite (= 5 ?x1211) (ite $x2945 121 120) ?x3276))))
 (let ((?x1034 (ite (= 8 ?x1211) (ite $x2945 213 212) (ite (= 7 ?x1211) (ite $x2945 182 181) ?x1606))))
 (let ((?x849 (ite (= 10 ?x1211) (ite $x2945 274 273) (ite (= 9 ?x1211) (ite $x2945 244 243) ?x1034))))
 (let ((?x1928 (ite (= 12 ?x1211) (ite $x2945 335 334) (ite (= 11 ?x1211) (ite $x2945 305 304) ?x849))))
 (let ((?x953 (+ (* 365 (- (+ ?x711 (+ 0 (div ?x3157 12))) 1)) (div (- (+ ?x711 (+ 0 (div ?x3157 12))) 1) 4))))
 (let ((?x3249 (+ (- ?x953 (div (- (+ ?x711 (+ 0 (div ?x3157 12))) 1) 100)) (div (- (+ ?x711 (+ 0 (div ?x3157 12))) 1) 400))))
 (let ((?x1106 (+ (+ (- (+ (+ ?x3249 ?x1928) (- ?x2155 1)) 730179) 0) 730179)))
 (let ((?x2914 (mod ?x1106 146097)))
 (let ((?x2957 (div ?x2914 36524)))
 (let ((?x2173 (ite (<= 4 ?x2957) 3 ?x2957)))
 (let ((?x1832 (- ?x2914 (* ?x2173 36524))))
 (let ((?x1516 (mod ?x1832 1461)))
 (let ((?x1228 (div ?x1516 365)))
 (let ((?x1458 (ite (<= 4 ?x1228) 3 ?x1228)))
 (let ((?x2563 (+ (+ (* (div ?x1106 146097) 400) (* ?x2173 100)) (* (div ?x1832 1461) 4))))
 (let ((?x1160 (+ (+ ?x2563 ?x1458) 1)))
 (let ((?x1449 (+ 0 (div ?x3157 12))))
 (let ((?x2243 (+ ?x711 ?x1449)))
 (let (($x682 (= 0 0)))
 (let ((?x1257 (ite $x682 ?x2243 ?x1160)))
 (= x_plus_year ?x1257)))))))))))))))))))))))))))))))))))))))))))))))))))))))))))))))))))))))))))))))
(assert
 (let ((?x1885 (+ x_epoch 730179)))
 (let ((?x955 (mod ?x1885 146097)))
 (let ((?x3291 (div ?x955 36524)))
 (let ((?x2830 (ite (<= 4 ?x3291) 3 ?x3291)))
 (let ((?x785 (- ?x955 (* ?x2830 36524))))
 (let ((?x456 (mod ?x785 1461)))
 (let ((?x2088 (div ?x456 365)))
 (let ((?x374 (ite (<= 4 ?x2088) 3 ?x2088)))
 (let ((?x1234 (+ (+ (* (div ?x1885 146097) 400) (* ?x2830 100)) (* (div ?x785 1461) 4))))
 (let ((?x711 (+ (+ ?x1234 ?x374) 1)))
 (let (($x976 (or (and (= (mod ?x711 4) 0) (and (distinct (mod ?x711 100) 0) true)) (= (mod ?x711 400) 0))))
 (let ((?x678 (- ?x456 (* ?x374 365))))
 (let ((?x2492 (ite $x976 31 31)))
 (let (($x2969 (>= ?x678 ?x2492)))
 (let ((?x2227 (ite $x2969 (+ (- ?x678 ?x2492) 1) (+ (- ?x678 (ite $x976 0 0)) 1))))
 (let ((?x810 (ite $x976 60 59)))
 (let (($x837 (>= ?x678 ?x810)))
 (let ((?x401 (ite $x976 91 90)))
 (let (($x1380 (>= ?x678 ?x401)))
 (let ((?x2687 (ite $x1380 (+ (- ?x678 ?x401) 1) (ite $x837 (+ (- ?x678 ?x810) 1) ?x2227))))
 (let ((?x528 (ite $x976 121 120)))
 (let (($x661 (>= ?x678 ?x528)))
 (let ((?x3710 (ite $x976 152 151)))
 (let (($x1145 (>= ?x678 ?x3710)))
 (let ((?x2059 (ite $x1145 (+ (- ?x678 ?x3710) 1) (ite $x661 (+ (- ?x678 ?x528) 1) ?x2687))))
 (let ((?x3712 (ite $x976 182 181)))
 (let (($x234 (>= ?x678 ?x3712)))
 (let ((?x2245 (ite $x976 213 212)))
 (let (($x381 (>= ?x678 ?x2245)))
 (let ((?x708 (ite $x381 (+ (- ?x678 ?x2245) 1) (ite $x234 (+ (- ?x678 ?x3712) 1) ?x2059))))
 (let ((?x677 (ite $x976 244 243)))
 (let (($x1420 (>= ?x678 ?x677)))
 (let ((?x2685 (ite $x976 274 273)))
 (let (($x1708 (>= ?x678 ?x2685)))
 (let ((?x1561 (ite $x1708 (+ (- ?x678 ?x2685) 1) (ite $x1420 (+ (- ?x678 ?x677) 1) ?x708))))
 (let ((?x792 (ite $x976 305 304)))
 (let (($x786 (>= ?x678 ?x792)))
 (let ((?x855 (ite $x976 335 334)))
 (let (($x889 (>= ?x678 ?x855)))
 (let ((?x3437 (ite $x889 (+ (- ?x678 ?x855) 1) (ite $x786 (+ (- ?x678 ?x792) 1) ?x1561))))
 (let ((?x3490 (* 0 12)))
 (let ((?x2807 (+ ?x3490 3)))
 (let ((?x2349 (ite $x661 5 (ite $x1380 4 (ite $x837 3 (ite $x2969 2 1))))))
 (let ((?x896 (ite $x1420 9 (ite $x381 8 (ite $x234 7 (ite $x1145 6 ?x2349))))))
 (let ((?x288 (ite $x889 12 (ite $x786 11 (ite $x1708 10 ?x896)))))
 (let ((?x482 (+ ?x288 ?x2807)))
 (let ((?x3157 (- ?x482 1)))
 (let ((?x1211 (+ (mod ?x3157 12) 1)))
 (let ((?x2691 (ite (or (= ?x1211 4) (= ?x1211 6) (= ?x1211 9) (= ?x1211 11)) 30 31)))
 (let (($x749 (and (= (mod (+ ?x711 (+ 0 (div ?x3157 12))) 4) 0) (and (distinct (mod (+ ?x711 (+ 0 (div ?x3157 12))) 100) 0) true))))
 (let (($x2945 (or $x749 (= (mod (+ ?x711 (+ 0 (div ?x3157 12))) 400) 0))))
 (let ((?x323 (ite (= ?x1211 2) (ite $x2945 29 28) ?x2691)))
 (let (($x2912 (> 1 ?x3437)))
 (let ((?x1619 (ite $x2912 1 (ite (> ?x3437 ?x323) ?x323 ?x3437))))
 (let ((?x2155 (ite (> 1 ?x1619) 1 (ite (> ?x1619 ?x323) ?x323 ?x1619))))
 (let ((?x2963 (ite (= 2 ?x1211) (ite $x2945 31 31) (ite (= 1 ?x1211) (ite $x2945 0 0) 0))))
 (let ((?x3276 (ite (= 4 ?x1211) (ite $x2945 91 90) (ite (= 3 ?x1211) (ite $x2945 60 59) ?x2963))))
 (let ((?x1606 (ite (= 6 ?x1211) (ite $x2945 152 151) (ite (= 5 ?x1211) (ite $x2945 121 120) ?x3276))))
 (let ((?x1034 (ite (= 8 ?x1211) (ite $x2945 213 212) (ite (= 7 ?x1211) (ite $x2945 182 181) ?x1606))))
 (let ((?x849 (ite (= 10 ?x1211) (ite $x2945 274 273) (ite (= 9 ?x1211) (ite $x2945 244 243) ?x1034))))
 (let ((?x1928 (ite (= 12 ?x1211) (ite $x2945 335 334) (ite (= 11 ?x1211) (ite $x2945 305 304) ?x849))))
 (let ((?x953 (+ (* 365 (- (+ ?x711 (+ 0 (div ?x3157 12))) 1)) (div (- (+ ?x711 (+ 0 (div ?x3157 12))) 1) 4))))
 (let ((?x3249 (+ (- ?x953 (div (- (+ ?x711 (+ 0 (div ?x3157 12))) 1) 100)) (div (- (+ ?x711 (+ 0 (div ?x3157 12))) 1) 400))))
 (let ((?x1106 (+ (+ (- (+ (+ ?x3249 ?x1928) (- ?x2155 1)) 730179) 0) 730179)))
 (let ((?x2914 (mod ?x1106 146097)))
 (let ((?x2957 (div ?x2914 36524)))
 (let ((?x2173 (ite (<= 4 ?x2957) 3 ?x2957)))
 (let ((?x1832 (- ?x2914 (* ?x2173 36524))))
 (let ((?x1516 (mod ?x1832 1461)))
 (let ((?x1228 (div ?x1516 365)))
 (let ((?x1458 (ite (<= 4 ?x1228) 3 ?x1228)))
 (let ((?x2563 (+ (+ (* (div ?x1106 146097) 400) (* ?x2173 100)) (* (div ?x1832 1461) 4))))
 (let ((?x1160 (+ (+ ?x2563 ?x1458) 1)))
 (let (($x1418 (or (and (= (mod ?x1160 4) 0) (and (distinct (mod ?x1160 100) 0) true)) (= (mod ?x1160 400) 0))))
 (let ((?x2621 (ite $x1418 31 31)))
 (let ((?x1680 (- ?x1516 (* ?x1458 365))))
 (let (($x2489 (>= ?x1680 ?x2621)))
 (let ((?x1579 (ite $x1418 60 59)))
 (let (($x3142 (>= ?x1680 ?x1579)))
 (let ((?x2901 (ite $x1418 91 90)))
 (let (($x3168 (>= ?x1680 ?x2901)))
 (let ((?x1400 (ite $x1418 121 120)))
 (let (($x3167 (>= ?x1680 ?x1400)))
 (let ((?x502 (ite $x3167 5 (ite $x3168 4 (ite $x3142 3 (ite $x2489 2 1))))))
 (let ((?x1083 (ite $x1418 152 151)))
 (let (($x3284 (>= ?x1680 ?x1083)))
 (let ((?x1723 (ite $x1418 182 181)))
 (let (($x1393 (>= ?x1680 ?x1723)))
 (let ((?x1331 (ite $x1418 213 212)))
 (let (($x3328 (>= ?x1680 ?x1331)))
 (let ((?x2474 (ite $x1418 244 243)))
 (let (($x1655 (>= ?x1680 ?x2474)))
 (let ((?x1635 (ite $x1655 9 (ite $x3328 8 (ite $x1393 7 (ite $x3284 6 ?x502))))))
 (let ((?x1098 (ite $x1418 274 273)))
 (let (($x2834 (>= ?x1680 ?x1098)))
 (let ((?x2789 (ite $x1418 305 304)))
 (let (($x3409 (>= ?x1680 ?x2789)))
 (let ((?x3398 (ite $x1418 335 334)))
 (let (($x1583 (>= ?x1680 ?x3398)))
 (let (($x682 (= 0 0)))
 (let ((?x2437 (ite $x682 ?x1211 (ite $x1583 12 (ite $x3409 11 (ite $x2834 10 ?x1635))))))
 (= x_plus_month ?x2437)))))))))))))))))))))))))))))))))))))))))))))))))))))))))))))))))))))))))))))))))))))))))))))))))))))))
(assert
 (let ((?x1885 (+ x_epoch 730179)))
 (let ((?x955 (mod ?x1885 146097)))
 (let ((?x3291 (div ?x955 36524)))
 (let ((?x2830 (ite (<= 4 ?x3291) 3 ?x3291)))
 (let ((?x785 (- ?x955 (* ?x2830 36524))))
 (let ((?x456 (mod ?x785 1461)))
 (let ((?x2088 (div ?x456 365)))
 (let ((?x374 (ite (<= 4 ?x2088) 3 ?x2088)))
 (let ((?x1234 (+ (+ (* (div ?x1885 146097) 400) (* ?x2830 100)) (* (div ?x785 1461) 4))))
 (let ((?x711 (+ (+ ?x1234 ?x374) 1)))
 (let (($x976 (or (and (= (mod ?x711 4) 0) (and (distinct (mod ?x711 100) 0) true)) (= (mod ?x711 400) 0))))
 (let ((?x678 (- ?x456 (* ?x374 365))))
 (let ((?x2492 (ite $x976 31 31)))
 (let (($x2969 (>= ?x678 ?x2492)))
 (let ((?x2227 (ite $x2969 (+ (- ?x678 ?x2492) 1) (+ (- ?x678 (ite $x976 0 0)) 1))))
 (let ((?x810 (ite $x976 60 59)))
 (let (($x837 (>= ?x678 ?x810)))
 (let ((?x401 (ite $x976 91 90)))
 (let (($x1380 (>= ?x678 ?x401)))
 (let ((?x2687 (ite $x1380 (+ (- ?x678 ?x401) 1) (ite $x837 (+ (- ?x678 ?x810) 1) ?x2227))))
 (let ((?x528 (ite $x976 121 120)))
 (let (($x661 (>= ?x678 ?x528)))
 (let ((?x3710 (ite $x976 152 151)))
 (let (($x1145 (>= ?x678 ?x3710)))
 (let ((?x2059 (ite $x1145 (+ (- ?x678 ?x3710) 1) (ite $x661 (+ (- ?x678 ?x528) 1) ?x2687))))
 (let ((?x3712 (ite $x976 182 181)))
 (let (($x234 (>= ?x678 ?x3712)))
 (let ((?x2245 (ite $x976 213 212)))
 (let (($x381 (>= ?x678 ?x2245)))
 (let ((?x708 (ite $x381 (+ (- ?x678 ?x2245) 1) (ite $x234 (+ (- ?x678 ?x3712) 1) ?x2059))))
 (let ((?x677 (ite $x976 244 243)))
 (let (($x1420 (>= ?x678 ?x677)))
 (let ((?x2685 (ite $x976 274 273)))
 (let (($x1708 (>= ?x678 ?x2685)))
 (let ((?x1561 (ite $x1708 (+ (- ?x678 ?x2685) 1) (ite $x1420 (+ (- ?x678 ?x677) 1) ?x708))))
 (let ((?x792 (ite $x976 305 304)))
 (let (($x786 (>= ?x678 ?x792)))
 (let ((?x855 (ite $x976 335 334)))
 (let (($x889 (>= ?x678 ?x855)))
 (let ((?x3437 (ite $x889 (+ (- ?x678 ?x855) 1) (ite $x786 (+ (- ?x678 ?x792) 1) ?x1561))))
 (let ((?x3490 (* 0 12)))
 (let ((?x2807 (+ ?x3490 3)))
 (let ((?x2349 (ite $x661 5 (ite $x1380 4 (ite $x837 3 (ite $x2969 2 1))))))
 (let ((?x896 (ite $x1420 9 (ite $x381 8 (ite $x234 7 (ite $x1145 6 ?x2349))))))
 (let ((?x288 (ite $x889 12 (ite $x786 11 (ite $x1708 10 ?x896)))))
 (let ((?x482 (+ ?x288 ?x2807)))
 (let ((?x3157 (- ?x482 1)))
 (let ((?x1211 (+ (mod ?x3157 12) 1)))
 (let ((?x2691 (ite (or (= ?x1211 4) (= ?x1211 6) (= ?x1211 9) (= ?x1211 11)) 30 31)))
 (let (($x749 (and (= (mod (+ ?x711 (+ 0 (div ?x3157 12))) 4) 0) (and (distinct (mod (+ ?x711 (+ 0 (div ?x3157 12))) 100) 0) true))))
 (let (($x2945 (or $x749 (= (mod (+ ?x711 (+ 0 (div ?x3157 12))) 400) 0))))
 (let ((?x323 (ite (= ?x1211 2) (ite $x2945 29 28) ?x2691)))
 (let (($x2912 (> 1 ?x3437)))
 (let ((?x1619 (ite $x2912 1 (ite (> ?x3437 ?x323) ?x323 ?x3437))))
 (let ((?x2155 (ite (> 1 ?x1619) 1 (ite (> ?x1619 ?x323) ?x323 ?x1619))))
 (let ((?x2963 (ite (= 2 ?x1211) (ite $x2945 31 31) (ite (= 1 ?x1211) (ite $x2945 0 0) 0))))
 (let ((?x3276 (ite (= 4 ?x1211) (ite $x2945 91 90) (ite (= 3 ?x1211) (ite $x2945 60 59) ?x2963))))
 (let ((?x1606 (ite (= 6 ?x1211) (ite $x2945 152 151) (ite (= 5 ?x1211) (ite $x2945 121 120) ?x3276))))
 (let ((?x1034 (ite (= 8 ?x1211) (ite $x2945 213 212) (ite (= 7 ?x1211) (ite $x2945 182 181) ?x1606))))
 (let ((?x849 (ite (= 10 ?x1211) (ite $x2945 274 273) (ite (= 9 ?x1211) (ite $x2945 244 243) ?x1034))))
 (let ((?x1928 (ite (= 12 ?x1211) (ite $x2945 335 334) (ite (= 11 ?x1211) (ite $x2945 305 304) ?x849))))
 (let ((?x953 (+ (* 365 (- (+ ?x711 (+ 0 (div ?x3157 12))) 1)) (div (- (+ ?x711 (+ 0 (div ?x3157 12))) 1) 4))))
 (let ((?x3249 (+ (- ?x953 (div (- (+ ?x711 (+ 0 (div ?x3157 12))) 1) 100)) (div (- (+ ?x711 (+ 0 (div ?x3157 12))) 1) 400))))
 (let ((?x1106 (+ (+ (- (+ (+ ?x3249 ?x1928) (- ?x2155 1)) 730179) 0) 730179)))
 (let ((?x2914 (mod ?x1106 146097)))
 (let ((?x2957 (div ?x2914 36524)))
 (let ((?x2173 (ite (<= 4 ?x2957) 3 ?x2957)))
 (let ((?x1832 (- ?x2914 (* ?x2173 36524))))
 (let ((?x1516 (mod ?x1832 1461)))
 (let ((?x1228 (div ?x1516 365)))
 (let ((?x1458 (ite (<= 4 ?x1228) 3 ?x1228)))
 (let ((?x2563 (+ (+ (* (div ?x1106 146097) 400) (* ?x2173 100)) (* (div ?x1832 1461) 4))))
 (let ((?x1160 (+ (+ ?x2563 ?x1458) 1)))
 (let (($x1418 (or (and (= (mod ?x1160 4) 0) (and (distinct (mod ?x1160 100) 0) true)) (= (mod ?x1160 400) 0))))
 (let ((?x1680 (- ?x1516 (* ?x1458 365))))
 (let ((?x2621 (ite $x1418 31 31)))
 (let (($x2489 (>= ?x1680 ?x2621)))
 (let ((?x1544 (ite $x2489 (+ (- ?x1680 ?x2621) 1) (+ (- ?x1680 (ite $x1418 0 0)) 1))))
 (let ((?x1579 (ite $x1418 60 59)))
 (let (($x3142 (>= ?x1680 ?x1579)))
 (let ((?x2901 (ite $x1418 91 90)))
 (let (($x3168 (>= ?x1680 ?x2901)))
 (let ((?x3008 (ite $x3168 (+ (- ?x1680 ?x2901) 1) (ite $x3142 (+ (- ?x1680 ?x1579) 1) ?x1544))))
 (let ((?x1400 (ite $x1418 121 120)))
 (let (($x3167 (>= ?x1680 ?x1400)))
 (let ((?x1083 (ite $x1418 152 151)))
 (let (($x3284 (>= ?x1680 ?x1083)))
 (let ((?x2552 (ite $x3284 (+ (- ?x1680 ?x1083) 1) (ite $x3167 (+ (- ?x1680 ?x1400) 1) ?x3008))))
 (let ((?x1723 (ite $x1418 182 181)))
 (let (($x1393 (>= ?x1680 ?x1723)))
 (let ((?x1331 (ite $x1418 213 212)))
 (let (($x3328 (>= ?x1680 ?x1331)))
 (let ((?x660 (ite $x3328 (+ (- ?x1680 ?x1331) 1) (ite $x1393 (+ (- ?x1680 ?x1723) 1) ?x2552))))
 (let ((?x2474 (ite $x1418 244 243)))
 (let (($x1655 (>= ?x1680 ?x2474)))
 (let ((?x1098 (ite $x1418 274 273)))
 (let (($x2834 (>= ?x1680 ?x1098)))
 (let ((?x1096 (ite $x2834 (+ (- ?x1680 ?x1098) 1) (ite $x1655 (+ (- ?x1680 ?x2474) 1) ?x660))))
 (let ((?x2789 (ite $x1418 305 304)))
 (let (($x3409 (>= ?x1680 ?x2789)))
 (let ((?x3398 (ite $x1418 335 334)))
 (let (($x1583 (>= ?x1680 ?x3398)))
 (let ((?x1363 (ite $x1583 (+ (- ?x1680 ?x3398) 1) (ite $x3409 (+ (- ?x1680 ?x2789) 1) ?x1096))))
 (let (($x682 (= 0 0)))
 (let ((?x818 (ite $x682 ?x2155 ?x1363)))
 (= x_plus_day ?x818)))))))))))))))))))))))))))))))))))))))))))))))))))))))))))))))))))))))))))))))))))))))))))))))))))))))))))
(assert
 (= y_epoch x_plus_epoch))
(assert
 (= y_epoch 8460))
(check-sat)
